Gurobi 12.0.3:   lim:time = 14400

  mip:bestbound = 1

Set parameter LogToConsole to value 1

  tech:outlev = 1

Set parameter Cuts to value 3

  cut:cuts = 3

Set parameter Presolve to value 2

  pre:solve = 2

Set parameter MIPFocus to value 2

  mip:focus = 2

Set parameter Symmetry to value 2

  mip:symmetry = 2

Set parameter InfUnbdInfo to value 1

Gurobi Optimizer version 12.0.3 build v12.0.3rc0 (win64 - Windows 11.0 (26100.2))



CPU model: 12th Gen Intel(R) Core(TM) i7-12700, instruction set [SSE2|AVX|AVX2]

Thread count: 12 physical cores, 20 logical processors, using up to 20 threads



Non-default parameters:

TimeLimit  14400

MIPFocus  2

Symmetry  2

Cuts  3

InfUnbdInfo  1

Presolve  2



Optimize a model with 520 rows, 730 columns and 4411 nonzeros

Model fingerprint: 0xf85759e0

Model has 4 quadratic constraints

Variable types: 34 continuous, 696 integer (0 binary)

Coefficient statistics:

  Matrix range     [1e+00, 1e+05]

  QMatrix range    [1e+00, 1e+00]

  QLMatrix range   [4e+00, 2e+01]

  Objective range  [9e+00, 1e+02]

  Bounds range     [1e+00, 1e+02]

  RHS range        [1e+00, 1e+05]

  QRHS range       [1e+02, 1e+02]

Presolve removed 42 rows and 75 columns

Presolve time: 0.08s

Presolved: 838 rows, 969 columns, 6302 nonzeros

Variable types: 18 continuous, 951 integer (808 binary)

Found heuristic solution: objective 828.6700000

Root relaxation presolve removed 92 rows and 0 columns

Root relaxation presolved: 527 rows, 868 columns, 7093 nonzeros





Root relaxation: objective 2.238118e+02, 90 iterations, 0.01 seconds (0.01 work units)



    Nodes    |    Current Node    |     Objective Bounds      |     Work

 Expl Unexpl |  Obj  Depth IntInf | Incumbent    BestBd   Gap | It/Node Time



     0     0  223.81178    0   32  828.67000  223.81178  73.0%     -    0s

H    0     0                     662.4700000  223.81178  66.2%     -    0s

H    0     0                     640.5100000  223.81178  65.1%     -    0s

     0     0  251.55000    0   22  640.51000  251.55000  60.7%     -    0s

H    0     0                     622.4200000  251.55000  59.6%     -    0s

H    0     0                     596.8300000  251.55000  57.9%     -    0s

     0     0  251.55000    0   26  596.83000  251.55000  57.9%     -    0s

     0     0  252.49250    0   26  596.83000  252.49250  57.7%     -    0s

H    0     0                     493.0400000  268.31177  45.6%     -    0s

H    0     0                     488.4000000  268.31177  45.1%     -    0s

H    0     0                     471.0300000  268.31177  43.0%     -    0s

     0     0  268.31177    0   43  471.03000  268.31177  43.0%     -    0s

H    0     0                     464.2300000  268.31177  42.2%     -    0s

     0     0  268.42660    0   43  464.23000  268.42660  42.2%     -    0s

H    0     0                     451.7300000  268.42660  40.6%     -    0s

H    0     0                     426.9600000  272.67100  36.1%     -    0s

H    0     0                     415.0300000  272.67100  34.3%     -    0s

H    0     0                     414.1900000  272.67100  34.2%     -    0s

     0     0  272.67100    0   39  414.19000  272.67100  34.2%     -    0s

     0     0  272.67967    0   39  414.19000  272.67967  34.2%     -    0s

     0     2  272.67967    0   39  414.19000  272.67967  34.2%     -    0s

H  142   153                     399.5500000  272.67967  31.8%  23.4    0s

*  837   533              31     385.8000000  272.67967  29.3%  15.9    0s

* 1095   595              22     372.6800000  293.19868  21.3%  15.1    0s

* 1211   644              16     367.5300000  293.35000  20.2%  14.7    0s

* 1227   644              12     365.4300000  293.35000  19.7%  14.7    0s

* 1314   672              11     364.3300000  295.41937  18.9%  14.8    0s

* 1980   670              15     343.0800000  300.31688  12.5%  14.4    0s

* 2325   622              16     327.2200000  305.91804  6.51%  14.4    1s



Cutting planes:

  Learned: 15

  Gomory: 6

  Cover: 4

  Implied bound: 28

  MIR: 40

  StrongCG: 38

  Flow cover: 139

  Inf proof: 13

  Zero half: 63

  RLT: 63

  Relax-and-lift: 13



Explored 3370 nodes (42252 simplex iterations) in 1.16 seconds (1.18 work units)

Thread count was 20 (of 20 available processors)



Solution count 10: 327.22 343.08 364.33 ... 415.03



Optimal solution found (tolerance 1.00e-04)

Best objective 3.272200000000e+02, best bound 3.272200000000e+02, gap 0.0000%



AMPL MP initial flat model has 730 variables (0 integer, 696 binary);

Objectives: 1 linear; 

Constraints:  520 linear; 4 quadratic;



AMPL MP final model has 730 variables (0 integer, 696 binary);

Objectives: 1 linear; 

Constraints:  520 linear; 4 quadratic;





-----RESULTS INFO-----
running_time:  1.1880000000000002
TC.best_bound:  327.22
TC:  327.22
MIP Gap (%):  0
=== Vehicle Routes ===
Vehicle 1: 0 → 4
Vehicle 1: 1 → 2
Vehicle 1: 2 → 5
Vehicle 1: 3 → 1
Vehicle 1: 4 → 19
Vehicle 1: 5 → 22
Vehicle 1: 9 → 3
Vehicle 1: 19 → 9
Vehicle 2: 0 → 21
Vehicle 2: 21 → 22
Vehicle 3: 0 → 22
Vehicle 4: 0 → 22

=== Full Vehicle Routes ===
Vehicle 1: 0 → 4 → 19 → 9 → 3 → 1 → 2 → 5 → 0 (98<100)
Vehicle 2: 0 → 21 → 0 (66<100)
Vehicle 3: 0 → 0 (0<100)
Vehicle 4: 0 → 0 (0<100)
Arc used by MRT line: y variables:
Customer assigment to PL: u variables:
6 21
7 21
8 19
10 21
11 21
Node is served by regular vehicle: g variables:
1
2
3
4
5
9
19
21
Customer assigment to Home delivery: gm variables:
1
2
3
4
5
9
Node total demands: ntd variables:
1 14 1
2 8 1
3 4 1
4 8 1
5 18 1
9 22 1
10 0 0
11 0 0
18 0 0
19 24 1
20 0 0
21 66 1
12 0 0
13 0 0
14 0 0
15 0 0
16 0 0
17 0 0
Customer's demand delivered to PL: l variables:
6
7
8
10
11
Lockers load <= capacity:
0 <= 89
24 <= 94
0 <= 93
66 <= 78
0 <= 85
0 <= 90
0 <= 88
0 <= 76
0 <= 70
0 <= 86
